32 2000
10 196
6 115
11 127
4 188
4 115
5 189
4 141
6 123
8 101
10 181
11 170
5 148
10 188
6 133
6 148
2 196
7 141
8 170
8 181
3 123
2 141
8 148
3 144
6 133
2 127
7 148
4 141
10 133
5 101
10 189
11 133
6 144
